Maximize

5 x_0 + 5 x_1 + 5 x_2 + 5 x_3 + 5 x_4 + 2 x_5 + 1 x_6 + 1 x_7 + 1 x_8 + 1 x_9


Subject To

a0: 1234.5 x_0 + 1098.7 x_1 + 1654.3 x_2 + 1210.9 x_3 + 1876.5 x_4 + 1432.1 x_5 + 1234.5 x_6 + 1099.9 x_7 + 1199.9 x_8 + 1000.0 x_9 <= 5000
b0: x_0 + x_2 + x_5 + x_6 >= 1
b1: x_0 + x_3 + x_7 + x_8 >= 1
b2: x_1 + x_3 + x_6 + x_9 >= 1
b3: x_1 + x_4 + x_5 + x_7 >= 1
b4: x_2 + x_4 + x_8 + x_9 >= 1
c0: x_0 + x_0 <= 2
c1: x_0 + x_1 <= 2
c2: x_0 + x_2 <= 2
c3: x_0 + x_3 <= 2
c4: x_0 + x_4 <= 2
c5: x_0 + x_5 <= 2
c6: x_0 + x_6 <= 2
c7: x_0 + x_7 <= 2
c8: x_0 + x_8 <= 1
c9: x_0 + x_9 <= 1
c10: x_1 + x_0 <= 2
c11: x_1 + x_1 <= 2
c12: x_1 + x_2 <= 2
c13: x_1 + x_3 <= 2
c14: x_1 + x_4 <= 2
c15: x_1 + x_5 <= 2
c16: x_1 + x_6 <= 2
c17: x_1 + x_7 <= 1
c18: x_1 + x_8 <= 1
c19: x_1 + x_9 <= 2
c20: x_2 + x_0 <= 2
c21: x_2 + x_1 <= 2
c22: x_2 + x_2 <= 2
c23: x_2 + x_3 <= 2
c24: x_2 + x_4 <= 2
c25: x_2 + x_5 <= 2
c26: x_2 + x_6 <= 1
c27: x_2 + x_7 <= 1
c28: x_2 + x_8 <= 2
c29: x_2 + x_9 <= 2
c30: x_3 + x_0 <= 2
c31: x_3 + x_1 <= 2
c32: x_3 + x_2 <= 2
c33: x_3 + x_3 <= 2
c34: x_3 + x_4 <= 2
c35: x_3 + x_5 <= 1
c36: x_3 + x_6 <= 1
c37: x_3 + x_7 <= 2
c38: x_3 + x_8 <= 2
c39: x_3 + x_9 <= 2
c40: x_4 + x_0 <= 2
c41: x_4 + x_1 <= 2
c42: x_4 + x_2 <= 2
c43: x_4 + x_3 <= 2
c44: x_4 + x_4 <= 2
c45: x_4 + x_5 <= 2
c46: x_4 + x_6 <= 2
c47: x_4 + x_7 <= 2
c48: x_4 + x_8 <= 2
c49: x_4 + x_9 <= 1
c50: x_5 + x_0 <= 2
c51: x_5 + x_1 <= 2
c52: x_5 + x_2 <= 2
c53: x_5 + x_3 <= 1
c54: x_5 + x_4 <= 2
c55: x_5 + x_5 <= 2
c56: x_5 + x_6 <= 2
c57: x_5 + x_7 <= 2
c58: x_5 + x_8 <= 2
c59: x_5 + x_9 <= 2
c60: x_6 + x_0 <= 2
c61: x_6 + x_1 <= 2
c62: x_6 + x_2 <= 1
c63: x_6 + x_3 <= 1
c64: x_6 + x_4 <= 2
c65: x_6 + x_5 <= 2
c66: x_6 + x_6 <= 2
c67: x_6 + x_7 <= 2
c68: x_6 + x_8 <= 2
c69: x_6 + x_9 <= 2
c70: x_7 + x_0 <= 2
c71: x_7 + x_1 <= 1
c72: x_7 + x_2 <= 1
c73: x_7 + x_3 <= 2
c74: x_7 + x_4 <= 2
c75: x_7 + x_5 <= 2
c76: x_7 + x_6 <= 2
c77: x_7 + x_7 <= 2
c78: x_7 + x_8 <= 2
c79: x_7 + x_9 <= 2
c80: x_8 + x_0 <= 1
c81: x_8 + x_1 <= 1
c82: x_8 + x_2 <= 2
c83: x_8 + x_3 <= 2
c84: x_8 + x_4 <= 2
c85: x_8 + x_5 <= 2
c86: x_8 + x_6 <= 2
c87: x_8 + x_7 <= 2
c88: x_8 + x_8 <= 2
c89: x_8 + x_9 <= 2
c90: x_9 + x_0 <= 1
c91: x_9 + x_1 <= 2
c92: x_9 + x_2 <= 2
c93: x_9 + x_3 <= 2
c94: x_9 + x_4 <= 1
c95: x_9 + x_5 <= 2
c96: x_9 + x_6 <= 2
c97: x_9 + x_7 <= 2
c98: x_9 + x_8 <= 2
c99: x_9 + x_9 <= 2




Binary

x_0 x_1 x_2 x_3 x_4 x_5 x_6 x_7 x_8 x_9

 


End
